(declare-const x0 Bool)
(declare-const x1 Bool)
(declare-const x2 Bool)
(declare-const x3 Bool)
(declare-const x4 Bool)
(declare-const x5 Bool)
(declare-const x6 Bool)
(declare-const x7 Bool)
(declare-const x8 Bool)
(declare-const x9 Bool)
(declare-const x10 Bool)
(declare-const x11 Bool)
(declare-const x12 Bool)
(declare-const x13 Bool)
(declare-const x14 Bool)
(declare-const x15 Bool)
(declare-const x16 Bool)
(declare-const x17 Bool)
(declare-const x18 Bool)
(declare-const x19 Bool)
(declare-const y0 Real)
(declare-const y1 Real)
(declare-const y2 Real)
(declare-const y3 Real)
(declare-const y4 Real)
(declare-const y5 Real)
(declare-const y6 Real)
(assert (and (= false true) (or x19 false)))
(assert (and (< (+ 9 65) 20) (= true x15)))
(assert (and x6 (or (= y3 y6) false)))
(assert (or true (= x7 false)))
(assert (< y2 6))
(assert (= y5 65))
(assert (< y4 42))
(assert (or (and x5 (< 63 y5)) (and (and x7 x10) (and (< 7 91) (= x11 (= 8 y2))))))
(assert (and (= y2 77) x4))
(assert (and (and (< y6 y3) false) (or (or x1 x16) false)))
(check-sat)
